(set-logic ALL)
(set-option :produce-models true)
(declare-sort BoundSet 0)
(declare-sort UnboundSet 0)
(set-option :finite-model-find true)
(declare-fun CanGive (BoundSet BoundSet) Bool)
(declare-fun WalkOver (BoundSet BoundSet) Bool)
(assert (not (=> (exists ((a BoundSet)) (exists ((b BoundSet)) (not (CanGive a b)))) (exists ((a BoundSet)) (exists ((c BoundSet)) (WalkOver c a))))))
(check-sat)
(get-model)